
Gurobi 13.0.2 (win64) logging started Thu Jul 23 12:21:10 2026

Set parameter LogFile to value "E:\codes\ExactEBRP\results\gf_gurobi_performance_recovery_round29\development\V12_M1__c4_candidate__60s\external\native_logs\L2.0.0.1.0.1.0.0.1_terminal_mip.gurobi.log"
Gurobi Optimizer version 13.0.2 build v13.0.2rc1 (win64 - Windows 10.0 (19045.2))

CPU model: 12th Gen Intel(R) Core(TM) i7-12700KF, instruction set [SSE2|AVX|AVX2]
Thread count: 12 physical cores, 20 logical processors, using up to 1 threads

Non-default parameters:
TimeLimit  14.6570039
MIPGap  0
MIPGapAbs  0
LogToConsole  0
Threads  1

Optimize a model with 6225 rows, 648 columns and 59365 nonzeros (Min)
Model fingerprint: 0x22c9d197
Model has 13 linear objective coefficients
Variable types: 347 continuous, 301 integer (253 binary)
Coefficient statistics:
  Matrix range     [2e-03, 1e+05]
  Objective range  [2e-03, 1e+00]
  Bounds range     [1e-01, 8e+01]
  RHS range        [3e-02, 1e+06]

Presolve removed 742 rows and 27 columns
Presolve time: 0.13s
Presolved: 5483 rows, 621 columns, 58745 nonzeros
Variable types: 321 continuous, 300 integer (252 binary)

Root relaxation: objective 3.223360e-01, 828 iterations, 0.07 seconds (0.21 work units)

    Nodes    |    Current Node    |     Objective Bounds      |     Work
 Expl Unexpl |  Obj  Depth IntInf | Incumbent    BestBd   Gap | It/Node Time

     0     0    0.32234    0  113          -    0.32234      -     -    0s
     0     0    0.33077    0   69          -    0.33077      -     -    0s
     0     0    0.33295    0   86          -    0.33295      -     -    0s
     0     0 infeasible    0               - infeasible      -     -    0s

Cutting planes:
  Learned: 2
  Gomory: 6
  Cover: 13
  Implied bound: 42
  Clique: 25
  MIR: 102
  StrongCG: 8
  Flow cover: 17
  Zero half: 1
  Network: 2
  RLT: 5
  Relax-and-lift: 9
  BQP: 4

Explored 1 nodes (1368 simplex iterations) in 0.82 seconds (1.06 work units)
Thread count was 1 (of 20 available processors)

Solution count 0

Model is infeasible
Best objective -, best bound -, gap -

User-callback calls 880, time in user-callback 0.00 sec
